Route #1: 1 3 35 49 41 45 7 32 31 21 28 13 1
Route #2: 1 8 38 10 34 37 44 12 25 50 1
Route #3: 1 17 26 5 48 27 19 1
Route #4: 1 15 14 4 23 39 47 24 1
Route #5: 1 33 30 20 29 2 1
Route #6: 1 16 9 43 18 22 11 1
Route #7: 1 6 40 1
Route #8: 1 42 46 36 1
cost: 1396
